 &control
    calculation='nscf'
    restart_mode='from_scratch',
    outdir='./tmp'
    prefix='fe'
 /
 &system
    ibrav = 3, celldm(1) =5.4235, nat= 1, ntyp= 1,
    ecutwfc =120.0, nspin = 2, nbnd= 14, ecutrho=800.0 
    starting_magnetization = -1, nosym=.true.
    occupations='smearing', smearing='cold', degauss=0.02
 /
 &electrons
    conv_thr = 1.0e-8
 /
ATOMIC_SPECIES
 Fe 55.85 Fe.jry.pbe.UPF
ATOMIC_POSITIONS
 Fe 0.0 0.0 0.0
K_POINTS crystal
8
      0.0000000000000000      0.0000000000000000      0.0000000000000000  1.250000e-01 
      0.0000000000000000      0.0000000000000000      0.5000000000000000  1.250000e-01 
      0.0000000000000000      0.5000000000000000      0.0000000000000000  1.250000e-01 
      0.0000000000000000      0.5000000000000000      0.5000000000000000  1.250000e-01 
      0.5000000000000000      0.0000000000000000      0.0000000000000000  1.250000e-01 
      0.5000000000000000      0.0000000000000000      0.5000000000000000  1.250000e-01 
      0.5000000000000000      0.5000000000000000      0.0000000000000000  1.250000e-01 
      0.5000000000000000      0.5000000000000000      0.5000000000000000  1.250000e-01 
