&inputpp
  outdir='./tmp/'
  prefix = 'graphite'
  seedname = 'graphite'
  spin_component = 'none'
  write_mmn = .true.
  write_amn = .true.
/
