Phonons on a uniform grid
&inputph
  verbosity='debug'
  tr2_ph=1.0d-17
  prefix='graphite'
  ldisp=.true.
  lqdir = .true.
  outdir='./tmp'
  fildyn  = 'graphite.dyn.xml'
  fildvscf = 'dvscf'
  nq1=2, nq2=2, nq3=2,
/
