num_bands = 22
exclude_bands: 1-12

num_iter =  0

iprint = 2

length_unit =  ang

!! 14 Valence + 8 Conduction bands
num_wann        =  22

begin projections
Mo:l=2
S:l=1
end projections

spinors=.true.

guiding_centres=.true.

begin unit_cell_cart
ang
 3.1600  0.00000000000  0.0000
-1.5800  2.73664027596  0.0000
 0.0000  0.00000000000  17.000
end unit_cell_cart

begin atoms_frac
 Mo    0.0000000000000000   0.0000000000000000   0.000000000   
 S    0.3333333333333333   0.6666666666666667   0.090582344    
 S    0.3333333333333333   0.6666666666666667  -0.090582344
end atoms_frac

!! !! To plot the WF interpolated bandstructure
bands_plot      =  true
begin kpoint_path
G 0.0000000000 0.0000000000 0.0000000000   M 0.5000000000 0.0000000000 0.0000000000
M 0.5000000000 0.0000000000 0.0000000000   K 0.3333333333 0.3333333333 0.0000000000
K 0.3333333333 0.3333333333 0.0000000000   G 0.0000000000 0.0000000000 0.0000000000
end kpoint_path

write_u_matrices = .true.
write_xyz = .true.
kpath = true
kpath_task = bands
kpath_bands_colour = spin
kpath_num_points=100


mp_grid : 2 2 1

begin kpoints
      0.0000000000000000      0.0000000000000000      0.0000000000000000 
      0.0000000000000000      0.5000000000000000      0.0000000000000000 
      0.5000000000000000      0.0000000000000000      0.0000000000000000 
      0.5000000000000000      0.5000000000000000      0.0000000000000000 
end kpoints      
