&control
    prefix='graphite'
    calculation='scf'
    pseudo_dir = '../pseudo'
 outdir='./tmp'
    verbosity = 'high'
    wf_collect = .true.
/
&system
    ibrav = 4
    a = 2.46 !2.461976
    c = 6.70
    nat= 4
    ntyp= 1
    nbnd = 20
    ecutwfc = 60
    occupations='smearing'
    degauss = 0.02
/
&electrons
    diagonalization='david'
    conv_thr =  1.0d-16
    diago_full_acc = .true.
/
&ions
/
ATOMIC_SPECIES
    C  12.01078 C_DOJO_LDA_SR.upf
ATOMIC_POSITIONS crystal
 C        0.0000000000000000   0.0000000000000000   0.25000000000      0 0 0
 C        0.0000000000000000   0.0000000000000000   0.75000000000      0 0 0
 C        0.3333333333333333   0.6666666666666667   0.25000000000      0 0 0
 C        0.6666666666666667   0.3333333333333333   0.75000000000      0 0 0
K_POINTS automatic
   6 6 6 0 0 0
