qe2pert
&qe2pert
  prefix='graphite'
  outdir='./tmp'
  phdir='../pw-ph-wann/phonon/save'
  nk1=2, nk2=2, nk3=2
  dft_band_min = 1
  dft_band_max = 24
  num_wann = 4
  lwannier=.true.
/
