qe2pert
&qe2pert
  prefix='graphene'
  outdir='./tmp'
  phdir='../pw-ph-wann/phonon/save'
  nk1=6, nk2=6, nk3=1
  dft_band_min = 1
  dft_band_max = 12
  num_wann = 2
  lwannier=.true.
  system_2d=.true.
/
