&control
    prefix='mos2'
    calculation='nscf'
    pseudo_dir = '../pseudo'
    outdir='./tmp'
    verbosity = 'high'
    wf_collect = .true.
/
&system
    ibrav = 4 
 a= 3.160
    c = 17
    nat= 3
    ntyp= 2
    ecutwfc =50
    nbnd=34 
    lspinorb=.true.
    noncolin=.true.
/
&electrons
    diagonalization='david'
    diago_full_acc=.true.
    conv_thr =  1.0d-11
/
&ions
/
ATOMIC_SPECIES
    Mo  95.95 Mo_DOJO_LDA_FR.upf
    S   32.06  S_DOJO_LDA_FR.upf
ATOMIC_POSITIONS crystal
 Mo       0.0000000000000000   0.0000000000000000   0.000000000      0   0   0
 S        0.3333333333333333   0.6666666666666667   0.090582344      0   0   1
 S        0.3333333333333333   0.6666666666666667  -0.090582344      0   0   1
K_POINTS crystal
4
      0.0000000000000000      0.0000000000000000      0.0000000000000000  2.500000e-01 
      0.0000000000000000      0.5000000000000000      0.0000000000000000  2.500000e-01 
      0.5000000000000000      0.0000000000000000      0.0000000000000000  2.500000e-01 
      0.5000000000000000      0.5000000000000000      0.0000000000000000  2.500000e-01 
