&control
    prefix='graphene'
    calculation='nscf'
    pseudo_dir = '../pseudo'
    outdir='./tmp'
    verbosity = 'high'
    wf_collect = .true.
/
&system
    assume_isolated='2D'
    ibrav = 4
    a = 2.46 
    c = 12
    nat= 2
    ntyp= 1
    nbnd = 12
    ecutwfc = 60
    occupations='smearing'
    degauss = 0.02
/
&electrons
    diagonalization='david'
    conv_thr =  1.0d-12 
    diago_full_acc = .true.
/
&ions
/
ATOMIC_SPECIES
    C  12.01078 C_DOJO_LDA_SR.upf
ATOMIC_POSITIONS crystal
 C        0.0000000000000000   0.0000000000000000   0.000000000      0 0 0
 C        0.3333333333333333   0.6666666666666667   0.000000000      0 0 0
K_POINTS crystal
36
      0.0000000000000000      0.0000000000000000      0.0000000000000000  2.777778e-02 
      0.0000000000000000      0.1666666666666667      0.0000000000000000  2.777778e-02 
      0.0000000000000000      0.3333333333333333      0.0000000000000000  2.777778e-02 
      0.0000000000000000      0.5000000000000000      0.0000000000000000  2.777778e-02 
      0.0000000000000000      0.6666666666666666      0.0000000000000000  2.777778e-02 
      0.0000000000000000      0.8333333333333334      0.0000000000000000  2.777778e-02 
      0.1666666666666667      0.0000000000000000      0.0000000000000000  2.777778e-02 
      0.1666666666666667      0.1666666666666667      0.0000000000000000  2.777778e-02 
      0.1666666666666667      0.3333333333333333      0.0000000000000000  2.777778e-02 
      0.1666666666666667      0.5000000000000000      0.0000000000000000  2.777778e-02 
      0.1666666666666667      0.6666666666666666      0.0000000000000000  2.777778e-02 
      0.1666666666666667      0.8333333333333334      0.0000000000000000  2.777778e-02 
      0.3333333333333333      0.0000000000000000      0.0000000000000000  2.777778e-02 
      0.3333333333333333      0.1666666666666667      0.0000000000000000  2.777778e-02 
      0.3333333333333333      0.3333333333333333      0.0000000000000000  2.777778e-02 
      0.3333333333333333      0.5000000000000000      0.0000000000000000  2.777778e-02 
      0.3333333333333333      0.6666666666666666      0.0000000000000000  2.777778e-02 
      0.3333333333333333      0.8333333333333334      0.0000000000000000  2.777778e-02 
      0.5000000000000000      0.0000000000000000      0.0000000000000000  2.777778e-02 
      0.5000000000000000      0.1666666666666667      0.0000000000000000  2.777778e-02 
      0.5000000000000000      0.3333333333333333      0.0000000000000000  2.777778e-02 
      0.5000000000000000      0.5000000000000000      0.0000000000000000  2.777778e-02 
      0.5000000000000000      0.6666666666666666      0.0000000000000000  2.777778e-02 
      0.5000000000000000      0.8333333333333334      0.0000000000000000  2.777778e-02 
      0.6666666666666666      0.0000000000000000      0.0000000000000000  2.777778e-02 
      0.6666666666666666      0.1666666666666667      0.0000000000000000  2.777778e-02 
      0.6666666666666666      0.3333333333333333      0.0000000000000000  2.777778e-02 
      0.6666666666666666      0.5000000000000000      0.0000000000000000  2.777778e-02 
      0.6666666666666666      0.6666666666666666      0.0000000000000000  2.777778e-02 
      0.6666666666666666      0.8333333333333334      0.0000000000000000  2.777778e-02 
      0.8333333333333334      0.0000000000000000      0.0000000000000000  2.777778e-02 
      0.8333333333333334      0.1666666666666667      0.0000000000000000  2.777778e-02 
      0.8333333333333334      0.3333333333333333      0.0000000000000000  2.777778e-02 
      0.8333333333333334      0.5000000000000000      0.0000000000000000  2.777778e-02 
      0.8333333333333334      0.6666666666666666      0.0000000000000000  2.777778e-02 
      0.8333333333333334      0.8333333333333334      0.0000000000000000  2.777778e-02 
