&inputpp 
   outdir = './tmp'
   prefix = 'fe'
   seedname = 'fe'
   spin_component = 'up'
   write_mmn = .true.
   write_amn = .true.
/
