Phonons on a uniform grid
&inputph
  tr2_ph=1.0d-16
  prefix='gaas'
  ldisp=.true.
  epsil=.true.
  lqdir = .true.
  outdir='./tmp'
  fildyn  = 'gaas.dyn.xml'
  fildvscf = 'dvscf'
  nq1=2, nq2=2, nq3=2,
  nk1=6, nk2=6, nk3=6
/
