&CONTROL
  prefix = 'gaas_uspp'
  calculation = 'scf'
  wf_collect = .true.
  outdir='./tmp'
  pseudo_dir='../pseudo'
/
&SYSTEM
  ibrav = 2
 celldm(1) = 10.57
  nat = 2
  ntyp = 2
  ecutwfc = 44
  ecutrho = 240
  noncolin = .true.
  lspinorb = .true.
/
&ELECTRONS
  conv_thr = 1.0d-15
  mixing_mode = 'plain'
  mixing_beta = 0.7
  diagonalization = 'david'
  diago_full_acc = .true.
/
ATOMIC_SPECIES
  Ga   69.723  Ga.rel-pbesol-dnl-rrkjus_psl.1.0.0.UPF 
  As   74.922  As.rel-pbesol-n-rrkjus_psl.1.0.0.UPF
ATOMIC_POSITIONS crystal
As -0.25000000  0.75000000 -0.25000000
Ga  0.00000000  0.00000000  0.00000000
K_POINTS (automatic)
 12 12 12 0 0 0
