Phonons
&inputph
  verbosity='debug'
  tr2_ph=1.0d-17
  prefix='mos2'
  ldisp=.true.
  epsil=.true.
  lqdir = .true.
  outdir='./tmp'
  fildyn  = 'mos2.dyn.xml'
  fildvscf = 'dvscf'
  nq1=1, nq2=1, nq3=1,
/
