num_bands = 12

num_iter =  0
dis_num_iter = 0

iprint = 2

length_unit =  ang

num_wann        =  2
dis_froz_max    = -1.1
dis_froz_min    = -7.5

begin projections
C:pz
end projections

guiding_centres=.true.

begin unit_cell_cart
ang
 2.460  0.00000000000  0.0000
-1.230  2.13042249331  0.0000
 0.0000  0.0000000000 12.000
end unit_cell_cart

begin atoms_frac
 C    0.0000000000000000   0.0000000000000000   0.000000000   
 C    0.3333333333333333   0.6666666666666667   0.000000000
end atoms_frac

!! !! To plot the WF interpolated bandstructure
bands_plot      =  true
begin kpoint_path
G 0.0000000000 0.0000000000 0.0000000000   M 0.5000000000 0.0000000000 0.0000000000
M 0.5000000000 0.0000000000 0.0000000000   K 0.3333333333 0.3333333333 0.0000000000
K 0.3333333333 0.3333333333 0.0000000000   G 0.0000000000 0.0000000000 0.0000000000
end kpoint_path

write_u_matrices = .true.
kpath = true
kpath_task = bands
kpath_bands_colour = spin
kpath_num_points=100

write_xyz=.true.

mp_grid : 6 6 1

begin kpoints
      0.0000000000000000      0.0000000000000000      0.0000000000000000 
      0.0000000000000000      0.1666666666666667      0.0000000000000000 
      0.0000000000000000      0.3333333333333333      0.0000000000000000 
      0.0000000000000000      0.5000000000000000      0.0000000000000000 
      0.0000000000000000      0.6666666666666666      0.0000000000000000 
      0.0000000000000000      0.8333333333333334      0.0000000000000000 
      0.1666666666666667      0.0000000000000000      0.0000000000000000 
      0.1666666666666667      0.1666666666666667      0.0000000000000000 
      0.1666666666666667      0.3333333333333333      0.0000000000000000 
      0.1666666666666667      0.5000000000000000      0.0000000000000000 
      0.1666666666666667      0.6666666666666666      0.0000000000000000 
      0.1666666666666667      0.8333333333333334      0.0000000000000000 
      0.3333333333333333      0.0000000000000000      0.0000000000000000 
      0.3333333333333333      0.1666666666666667      0.0000000000000000 
      0.3333333333333333      0.3333333333333333      0.0000000000000000 
      0.3333333333333333      0.5000000000000000      0.0000000000000000 
      0.3333333333333333      0.6666666666666666      0.0000000000000000 
      0.3333333333333333      0.8333333333333334      0.0000000000000000 
      0.5000000000000000      0.0000000000000000      0.0000000000000000 
      0.5000000000000000      0.1666666666666667      0.0000000000000000 
      0.5000000000000000      0.3333333333333333      0.0000000000000000 
      0.5000000000000000      0.5000000000000000      0.0000000000000000 
      0.5000000000000000      0.6666666666666666      0.0000000000000000 
      0.5000000000000000      0.8333333333333334      0.0000000000000000 
      0.6666666666666666      0.0000000000000000      0.0000000000000000 
      0.6666666666666666      0.1666666666666667      0.0000000000000000 
      0.6666666666666666      0.3333333333333333      0.0000000000000000 
      0.6666666666666666      0.5000000000000000      0.0000000000000000 
      0.6666666666666666      0.6666666666666666      0.0000000000000000 
      0.6666666666666666      0.8333333333333334      0.0000000000000000 
      0.8333333333333334      0.0000000000000000      0.0000000000000000 
      0.8333333333333334      0.1666666666666667      0.0000000000000000 
      0.8333333333333334      0.3333333333333333      0.0000000000000000 
      0.8333333333333334      0.5000000000000000      0.0000000000000000 
      0.8333333333333334      0.6666666666666666      0.0000000000000000 
      0.8333333333333334      0.8333333333333334      0.0000000000000000 
end kpoints      
