exclude_bands    = 1-20
num_bands        =  40

write_u_matrices = .true.
write_xyz        = .true.

num_iter         =  0
dis_num_iter     = 1000

spinors          = .true.

length_unit      =  bohr

num_wann        =  16
dis_froz_min    =  -4
dis_froz_max    =  16.5
dis_conv_tol   = 1.0d-13

begin projections
As:sp3
Ga:sp3
end projections

guiding_centres=true

begin unit_cell_cart
 bohr
-5.285  0.000   5.285
 0.000  5.285   5.285
-5.285  5.285   0.000
end unit_cell_cart

kpath = true
kpath_task = bands
kpath_bands_colour = spin
kpath_num_points = 100

begin atoms_frac
As -0.25000000  0.75000000 -0.25000000
Ga  0.00000000  0.00000000  0.00000000
end atoms_frac

bands_plot      =  true
begin kpoint_path
L 0.50000  0.50000 0.5000 G 0.00000  0.00000 0.0000
G 0.00000  0.00000 0.0000 X 0.50000  0.00000 0.5000
X 0.50000 -0.50000 0.0000 K 0.37500 -0.37500 0.0000
K 0.37500 -0.37500 0.0000 G 0.00000  0.00000 0.0000
end kpoint_path

mp_grid  =  2 2 2

begin kpoints
      0.0000000000000000      0.0000000000000000      0.0000000000000000 
      0.0000000000000000      0.0000000000000000      0.5000000000000000 
      0.0000000000000000      0.5000000000000000      0.0000000000000000 
      0.0000000000000000      0.5000000000000000      0.5000000000000000 
      0.5000000000000000      0.0000000000000000      0.0000000000000000 
      0.5000000000000000      0.0000000000000000      0.5000000000000000 
      0.5000000000000000      0.5000000000000000      0.0000000000000000 
      0.5000000000000000      0.5000000000000000      0.5000000000000000 
end kpoints
